
List of user-set options:

                                    Name   Value                used
                           compl_inf_tol = 1                     yes
                         constr_viol_tol = 1                     yes
                            dual_inf_tol = 1000                  yes
                           linear_solver = ma97                  yes
                              ma86_small = 1e-30                  no
                                  ma86_u = 0.0001                 no
                              ma97_order = best                  yes
                              ma97_small = 1e-30                 yes
                            ma97_switch1 = at_start              yes
                            ma97_switch2 = od_hd_reuse           yes
                                  ma97_u = 1e-06                 yes
                               ma97_umax = 0.5                   yes
                                max_iter = 1000                  yes
                    max_refinement_steps = 20                    yes
                    min_refinement_steps = 5                     yes
                                 mu_init = 1e-06                 yes
           mu_superlinear_decrease_power = 1.25                  yes
                   nlp_scaling_min_value = 1e-08                 yes
                        option_file_name = Preset_Case_556_pf.opt  yes
                             output_file = ./tmp/Preset_Case_556_pf.output  yes
                      print_user_options = yes                   yes
        required_infeasibility_reduction = 1                      no
                                     tol = 1e-08                 yes
                   warm_start_bound_frac = 1e-20                 yes
                   warm_start_bound_push = 1e-20                 yes
                   warm_start_init_point = yes                   yes
              warm_start_mult_bound_push = 1e-20                 yes
                warm_start_mult_init_max = 1e+40                 yes
             warm_start_slack_bound_frac = 1e-20                 yes
             warm_start_slack_bound_push = 1e-20                 yes

******************************************************************************
This program contains Ipopt, a library for large-scale nonlinear optimization.
 Ipopt is released as open source code under the Eclipse Public License (EPL).
         For more information visit http://projects.coin-or.org/Ipopt
******************************************************************************

This is Ipopt version 3.12.10, running with linear solver ma97.

Number of nonzeros in equality constraint Jacobian...:   123443
Number of nonzeros in inequality constraint Jacobian.:      213
Number of nonzeros in Lagrangian Hessian.............:    49069

Total number of variables............................:    31591
                     variables with only lower bounds:    12912
                variables with lower and upper bounds:    15130
                     variables with only upper bounds:        0
Total number of equality constraints.................:    31483
Total number of inequality constraints...............:       25
        inequality constraints with only lower bounds:        4
   inequality constraints with lower and upper bounds:        0
        inequality constraints with only upper bounds:       21

iter    objective    inf_pr   inf_du lg(mu)  ||d||  lg(rg) alpha_du alpha_pr  ls
   0 -5.0322737e+00 4.08e-03 1.02e+00  -6.0 0.00e+00    -  0.00e+00 0.00e+00   0
   1 -5.0318053e+00 3.26e-01 4.17e+00  -6.0 2.91e+05    -  1.19e-04 3.02e-04h  2
   2 -5.0333973e+00 3.25e-01 1.33e+01  -6.0 4.37e+03    -  6.01e-02 2.31e-03h  1
   3 -5.0435314e+00 1.84e+01 1.42e+01  -6.0 6.41e+04    -  1.82e-02 1.36e-02f  1
   4 -5.0691386e+00 3.63e+01 2.12e+01  -6.0 2.29e+04    -  2.78e-02 3.95e-02h  1
   5 -5.0729556e+00 3.60e+01 6.10e+01  -6.0 7.46e+03    -  6.74e-02 6.06e-03h  1
   6 -5.0729617e+00 3.60e+01 1.58e+04  -6.0 5.05e+00  -4.0 2.30e-01 4.45e-04h  1
   7 -5.2126447e+00 2.71e+01 1.21e+04  -6.0 3.98e+03    -  4.65e-02 2.47e-01h  1
   8 -5.2328618e+00 2.57e+01 1.17e+04  -6.0 1.77e+04    -  1.62e-02 5.22e-02h  1
   9 -5.2630368e+00 2.35e+01 1.06e+04  -6.0 4.18e+03    -  1.06e-01 8.43e-02h  1
iter    objective    inf_pr   inf_du lg(mu)  ||d||  lg(rg) alpha_du alpha_pr  ls
  10 -5.3037161e+00 2.48e+01 8.47e+03  -6.0 3.72e+03    -  2.41e-01 1.30e-01h  1
  11 -5.3269277e+00 2.43e+01 7.81e+03  -6.0 3.22e+03    -  7.67e-02 9.17e-02h  1
  12 -5.3358625e+00 2.35e+01 2.71e+03  -6.0 2.39e+03    -  6.05e-01 4.12e-02h  1
  13 -5.3576977e+00 2.11e+01 2.18e+03  -6.0 8.17e+03    -  1.72e-01 1.07e-01h  1
  14 -5.3837906e+00 1.98e+01 1.59e+03  -6.0 2.31e+03    -  2.07e-01 1.53e-01h  1
  15 -5.4086379e+00 1.93e+01 1.90e+03  -6.0 4.87e+03    -  5.40e-02 1.83e-01h  1
  16 -5.4151952e+00 1.86e+01 2.26e+03  -6.0 3.59e+03    -  6.91e-02 4.01e-02h  1
  17 -5.4582177e+00 7.71e+01 5.31e+03  -6.0 2.96e+03    -  3.27e-01 6.07e-01h  1
  18 -5.4545916e+00 6.79e+01 2.24e+05  -6.0 1.22e+01  -4.5 5.72e-03 1.19e-01h  1
  19 -5.4517677e+00 6.07e+01 2.05e+05  -6.0 6.12e+00  -5.0 1.83e-01 1.06e-01h  1
iter    objective    inf_pr   inf_du lg(mu)  ||d||  lg(rg) alpha_du alpha_pr  ls
  20 -5.4298899e+00 7.18e-02 3.14e+03  -6.0 1.52e+01  -5.4 7.83e-02 1.00e+00h  1
  21 -5.4443808e+00 5.38e-01 1.19e+02  -6.0 2.25e+01  -5.9 9.18e-01 1.00e+00h  1
  22 -5.4408646e+00 8.10e-02 2.54e+00  -6.0 5.24e+01  -6.4 1.00e+00 1.00e+00h  1
  23 -5.4475724e+00 8.13e-01 3.64e+00  -6.0 1.66e+02  -6.9 8.21e-01 1.00e+00h  1
  24 -5.4538123e+00 1.12e+00 5.61e+01  -6.0 1.44e+03  -7.3 1.33e-01 7.87e-02h  1
  25 -5.4565149e+00 1.37e+00 1.17e+04  -6.0 1.85e+03    -  5.54e-02 1.37e-01h  1
  26 -5.4575309e+00 2.04e+00 1.79e+04  -6.0 7.06e+03    -  1.93e-01 4.11e-02h  1
  27 -5.4622280e+00 4.29e+01 1.33e+04  -6.0 6.00e+03    -  5.23e-02 2.19e-01h  1
  28 -5.4717071e+00 2.50e+01 1.16e+05  -6.0 1.03e+03    -  1.00e+00 5.13e-01h  1
  29 -5.4794549e+00 7.07e+01 1.46e+04  -6.0 4.16e+03    -  2.28e-01 3.89e-01h  1
iter    objective    inf_pr   inf_du lg(mu)  ||d||  lg(rg) alpha_du alpha_pr  ls
  30 -5.5004609e+00 2.40e+00 6.71e+05  -6.0 2.37e+02  -7.8 5.17e-02 9.67e-01h  1
  31r-5.5004609e+00 2.40e+00 1.00e+03   0.3 0.00e+00    -  0.00e+00 3.36e-07R  3
  32r-5.5170214e+00 2.40e+00 1.00e+03   0.3 1.50e+04    -  2.71e-06 9.04e-07f  1
  33 -5.5168585e+00 2.37e+00 2.68e+03  -6.0 1.24e+01    -  3.48e-06 9.32e-03h  1
  34 -5.5165185e+00 2.33e+00 2.63e+03  -6.0 1.24e+01    -  9.61e-02 1.92e-02h  1
  35 -5.5142122e+00 2.02e+00 2.31e+03  -6.0 1.22e+01    -  2.92e-02 1.31e-01h  1
  36 -5.5128738e+00 1.86e+00 2.13e+03  -6.0 1.05e+01    -  1.88e-02 7.94e-02h  1
  37 -5.5082886e+00 1.44e+00 1.64e+03  -6.0 9.24e+00    -  2.80e-01 2.29e-01h  1
  38 -5.5083519e+00 1.28e+00 1.46e+03  -6.0 8.21e+00    -  7.46e-01 1.12e-01h  1
  39 -5.5000062e+00 1.76e-01 2.01e+02  -6.0 7.05e+00    -  9.12e-01 8.62e-01h  1
iter    objective    inf_pr   inf_du lg(mu)  ||d||  lg(rg) alpha_du alpha_pr  ls
  40 -5.5004534e+00 3.35e-02 3.82e+01  -6.0 5.82e+00    -  8.00e-01 8.10e-01h  1
  41 -5.5019105e+00 1.72e-02 1.15e+01  -6.0 2.58e+01    -  9.06e-01 9.12e-01h  1
  42 -5.5094341e+00 2.85e-01 4.72e+00  -6.0 1.01e+02    -  9.19e-01 1.00e+00h  1
  43 -5.5126406e+00 4.86e-01 3.32e+00  -6.0 7.05e+01  -6.5 9.14e-01 6.80e-01h  1
  44 -5.5152225e+00 4.66e-01 2.02e+01  -6.0 5.42e+02    -  9.07e-01 2.50e-01h  1
  45 -5.5173767e+00 7.72e-01 2.09e+01  -6.0 1.09e+03    -  5.23e-01 1.66e-01h  2
  46 -5.5176132e+00 1.77e+00 7.40e+00  -6.0 4.72e+02    -  6.14e-01 6.53e-01H  1
  47 -5.5184083e+00 5.78e-01 2.44e+00  -6.0 2.06e+02    -  7.83e-01 7.56e-01h  1
  48 -5.5126461e+00 1.99e-01 3.83e+04  -6.0 6.94e+01  -7.0 4.78e-01 1.00e+00h  1
  49 -5.5212375e+00 1.88e-01 1.11e+04  -6.0 1.34e+02  -7.4 3.27e-01 1.89e-01h  1
iter    objective    inf_pr   inf_du lg(mu)  ||d||  lg(rg) alpha_du alpha_pr  ls
  50 -5.5268925e+00 3.92e-02 3.23e+02  -6.0 3.10e+01  -7.9 1.00e+00 1.00e+00h  1
  51 -5.5253214e+00 3.43e-02 2.14e+03  -6.0 4.34e+01  -8.4 1.00e+00 2.50e-01h  3
  52 -5.5246592e+00 3.12e-02 2.63e+03  -6.0 6.61e+01  -8.9 1.00e+00 1.25e-01h  4
  53 -5.5245058e+00 3.03e-02 2.95e+03  -6.0 1.79e+02  -9.4 1.00e+00 3.12e-02h  6
  54 -5.5244773e+00 3.01e-02 3.00e+03  -6.0 4.24e+02  -9.8 1.00e+00 5.91e-03h  8
  55 -5.5244641e+00 3.00e-02 3.01e+03  -6.0 7.74e+02 -10.3 1.00e+00 2.77e-03h  9
  56 -5.5244588e+00 3.00e-02 3.03e+03  -6.0 9.85e+02 -10.8 1.00e+00 1.10e-03h 10
  57 -5.5244482e+00 2.99e-02 3.04e+03  -6.0 9.68e+02    -  1.00e+00 2.24e-03h  9
  58 -5.5244341e+00 2.98e-02 3.06e+03  -6.0 7.41e+02    -  1.00e+00 2.95e-03h  9
  59 -5.5244175e+00 2.97e-02 3.07e+03  -6.0 6.35e+02    -  1.00e+00 3.47e-03h  9
iter    objective    inf_pr   inf_du lg(mu)  ||d||  lg(rg) alpha_du alpha_pr  ls
  60 -5.5243997e+00 2.96e-02 3.08e+03  -6.0 5.94e+02    -  1.00e+00 3.74e-03h  9
  61 -5.5196960e+00 6.17e+00 7.67e+02  -6.0 5.80e+02    -  1.00e+00 9.89e-01w  1
  62 -5.5196798e+00 6.06e+00 7.80e+03  -6.0 4.76e+03 -10.4 9.10e-02 2.07e-02w  1
  63 -5.5196716e+00 6.22e+00 5.23e+04  -6.0 8.84e+03    -  1.81e-01 1.32e-02w  1
  64 -5.5243813e+00 2.95e-02 3.09e+03  -6.0 1.32e+03    -  1.00e+00 3.86e-03h  8
  65 -5.5243628e+00 2.94e-02 3.11e+03  -6.0 5.74e+02    -  1.00e+00 3.91e-03h  9
  66 -5.5243443e+00 2.93e-02 3.12e+03  -6.0 5.74e+02    -  1.00e+00 3.91e-03h  9
  67 -5.5243258e+00 2.92e-02 3.13e+03  -6.0 5.74e+02    -  1.00e+00 3.91e-03h  9
  68 -5.5243074e+00 2.90e-02 3.15e+03  -6.0 5.77e+02    -  1.00e+00 3.91e-03h  9
  69 -5.5242890e+00 2.89e-02 3.16e+03  -6.0 5.78e+02    -  1.00e+00 3.91e-03h  9
iter    objective    inf_pr   inf_du lg(mu)  ||d||  lg(rg) alpha_du alpha_pr  ls
  70 -5.5242706e+00 2.88e-02 3.18e+03  -6.0 5.81e+02    -  1.00e+00 3.91e-03h  9
  71 -5.5242523e+00 2.87e-02 3.20e+03  -6.0 5.83e+02    -  1.00e+00 3.91e-03h  9
  72 -5.5242341e+00 2.86e-02 3.22e+03  -6.0 5.86e+02    -  1.00e+00 3.90e-03h  9
  73 -5.5242159e+00 2.85e-02 3.24e+03  -6.0 5.87e+02    -  1.00e+00 3.88e-03h  9
  74 -5.5196070e+00 6.37e+00 7.84e+02  -6.0 5.89e+02    -  1.00e+00 9.90e-01w  1
  75 -5.5196068e+00 6.37e+00 7.58e+04  -6.0 2.34e+03  -9.9 7.16e-04 2.78e-05w  1
  76 -5.5194388e+00 5.99e+00 5.67e+04  -6.0 1.45e+03 -10.4 2.50e-01 7.20e-02w  1
  77 -5.5241979e+00 2.84e-02 3.26e+03  -6.0 9.13e+02    -  1.00e+00 3.87e-03h  8
  78 -5.5241800e+00 2.83e-02 3.29e+03  -6.0 5.90e+02    -  1.00e+00 3.85e-03h  9
  79 -5.5241623e+00 2.82e-02 3.32e+03  -6.0 5.92e+02    -  1.00e+00 3.83e-03h  9
iter    objective    inf_pr   inf_du lg(mu)  ||d||  lg(rg) alpha_du alpha_pr  ls
  80 -5.5241446e+00 2.81e-02 3.35e+03  -6.0 5.91e+02    -  1.00e+00 3.81e-03h  9
  81 -5.5241271e+00 2.80e-02 3.39e+03  -6.0 5.92e+02    -  1.00e+00 3.79e-03h  9
  82 -5.5241097e+00 2.78e-02 3.43e+03  -6.0 5.89e+02    -  1.00e+00 3.77e-03h  9
  83 -5.5240924e+00 2.77e-02 3.47e+03  -6.0 5.89e+02    -  1.00e+00 3.76e-03h  9
  84 -5.5240764e+00 2.76e-02 3.52e+03  -6.0 5.84e+02    -  1.00e+00 3.49e-03h  9
  85 -5.5240593e+00 2.75e-02 3.58e+03  -6.0 5.83e+02    -  1.00e+00 3.72e-03h  9
  86 -5.5240455e+00 2.75e-02 3.64e+03  -6.0 5.76e+02    -  1.00e+00 3.02e-03h  9
  87 -5.5197298e+00 5.51e+00 5.45e+02  -6.0 5.74e+02    -  1.00e+00 9.45e-01w  1
  88 -5.5197293e+00 5.51e+00 7.15e+04  -6.0 1.52e+03  -9.1 7.07e-04 6.36e-05w  1
  89 -5.5173644e+00 6.67e-01 4.53e+04  -6.0 1.97e+02  -9.6 3.75e-01 1.00e+00w  1
iter    objective    inf_pr   inf_du lg(mu)  ||d||  lg(rg) alpha_du alpha_pr  ls
  90 -5.5240286e+00 2.74e-02 3.71e+03  -6.0 5.69e+02    -  1.00e+00 3.69e-03h  8
  91 -5.5240177e+00 2.73e-02 3.79e+03  -6.0 5.64e+02    -  1.00e+00 2.40e-03h  9
  92 -5.5240010e+00 2.72e-02 3.88e+03  -6.0 5.64e+02    -  1.00e+00 3.66e-03h  9
  93 -5.5239863e+00 2.71e-02 3.98e+03  -6.0 5.50e+02    -  1.00e+00 3.25e-03h  8
  94 -5.5239698e+00 2.70e-02 4.09e+03  -6.0 5.50e+02    -  1.00e+00 3.63e-03h  9
  95 -5.5239666e+00 2.70e-02 4.22e+03  -6.0 5.28e+02    -  1.00e+00 7.02e-04h  9
  96 -5.5239503e+00 2.69e-02 4.35e+03  -6.0 5.45e+02    -  1.00e+00 3.61e-03h  9
  97 -5.5239346e+00 2.68e-02 4.52e+03  -6.0 3.35e+02 -10.0 1.00e+00 3.45e-03h  8
  98 -5.5239208e+00 2.67e-02 4.70e+03  -6.0 6.75e+02    -  1.00e+00 3.07e-03h  9
  99 -5.5239157e+00 2.67e-02 4.91e+03  -6.0 5.69e+02    -  1.00e+00 1.12e-03h  9
iter    objective    inf_pr   inf_du lg(mu)  ||d||  lg(rg) alpha_du alpha_pr  ls
 100 -5.5198198e+00 4.41e+00 2.00e+02  -6.0 5.34e+02    -  1.00e+00 9.10e-01w  1
 101 -5.5198186e+00 4.41e+00 5.67e+04  -6.0 1.19e+03  -8.7 7.09e-04 1.89e-04w  1
 102 -5.5173851e+00 1.08e-01 2.75e+04  -6.0 8.07e+01  -9.2 5.52e-01 1.00e+00w  1
 103 -5.5238997e+00 2.66e-02 5.13e+03  -6.0 8.29e+01  -6.0 1.00e+00 3.56e-03h  8
 104 -5.5213337e+00 1.70e-02 1.21e+04  -6.0 3.38e+01  -6.5 1.00e+00 6.66e-01H  1
 105 -5.5213000e+00 1.69e-02 2.88e+05  -6.0 5.56e+01  -7.0 8.20e-04 6.11e-03h  6
 106 -5.5175595e+00 5.54e-03 3.08e+03  -6.0 1.33e+01  -7.5 5.85e-01 1.00e+00h  1
 107 -5.5176742e+00 1.13e-02 4.91e+03  -6.0 1.32e+02  -8.0 2.68e-01 1.25e-01h  4
 108 -5.5176173e+00 9.55e-03 5.31e+00  -6.0 2.26e+01  -8.4 1.00e+00 1.00e+00h  1
 109 -5.5176161e+00 9.03e-04 3.24e-02  -6.0 6.38e+01  -8.9 1.00e+00 1.00e+00H  1
iter    objective    inf_pr   inf_du lg(mu)  ||d||  lg(rg) alpha_du alpha_pr  ls
 110 -5.5176153e+00 1.06e-02 1.80e-01  -6.0 1.55e+02  -9.4 1.00e+00 1.00e+00H  1
 111 -5.5176157e+00 1.21e-02 4.29e+01  -6.0 6.47e+03    -  2.67e-01 2.33e-03h  4
 112 -5.5176154e+00 1.58e-02 1.05e+01  -6.0 2.79e+02    -  1.00e+00 3.87e-02h  5
 113 -5.5176152e+00 1.64e-02 5.54e+00  -6.0 1.94e+02    -  1.00e+00 2.74e-02h  6
 114 -5.5176096e+00 8.45e-01 5.14e-01  -6.0 1.93e+02    -  1.00e+00 8.82e-01H  1
 115 -5.5176085e+00 7.34e+00 2.80e+00  -6.0 6.36e+02    -  1.00e+00 1.00e+00h  1
 116 -5.5175630e+00 7.41e+00 1.30e+01  -6.0 6.56e+02    -  3.93e-01 1.00e+00h  1
 117 -5.5175879e+00 2.79e+00 8.97e-01  -6.0 3.99e+02    -  1.00e+00 1.00e+00h  1
 118 -5.5175816e+00 8.15e-03 8.51e-03  -6.0 1.89e+01    -  1.00e+00 1.00e+00h  1
 119 -5.5175813e+00 4.07e-06 6.33e-06  -6.0 4.93e-01    -  1.00e+00 1.00e+00h  1
iter    objective    inf_pr   inf_du lg(mu)  ||d||  lg(rg) alpha_du alpha_pr  ls
 120 -5.5177931e+00 4.32e+00 4.71e+01  -7.5 8.47e+02    -  3.94e-01 5.57e-01h  1
 121 -5.5178337e+00 4.65e+00 1.05e+02  -7.5 5.33e+02    -  2.71e-01 8.24e-01h  1
 122 -5.5178189e+00 3.47e+00 2.01e+01  -7.5 3.63e+02  -9.9 8.43e-01 1.00e+00h  1
 123 -5.5178121e+00 3.04e-01 1.42e-01  -7.5 1.22e+02    -  1.00e+00 1.00e+00h  1
 124 -5.5178111e+00 3.06e-03 2.95e-04  -7.5 1.19e+01    -  1.00e+00 1.00e+00h  1
 125 -5.5178111e+00 1.79e-08 3.61e-09  -7.5 2.64e-02    -  1.00e+00 1.00e+00h  1
 126 -5.5178129e+00 3.08e-02 8.87e-01  -9.0 4.62e+01    -  9.32e-01 8.35e-01h  1
 127 -5.5178131e+00 1.49e-03 1.66e-01  -9.0 8.46e+00    -  9.62e-01 1.00e+00h  1
 128 -5.5178131e+00 1.40e-09 5.71e-09  -9.0 9.11e-03    -  1.00e+00 1.00e+00h  1

Number of Iterations....: 128

                                   (scaled)                 (unscaled)
Objective...............:  -4.3107914600862847e+00   -5.5178130689104448e+00
Dual infeasibility......:   5.7059126548717607e-09    7.3035681982358538e-09
Constraint violation....:   1.1510511216008622e-09    1.4006218407303095e-09
Complementarity.........:   1.3324682975046698e-09    1.7055594208059774e-09
Overall NLP error.......:   5.7059126548717607e-09    7.3035681982358538e-09


Number of objective function evaluations             = 583
Number of objective gradient evaluations             = 129
Number of equality constraint evaluations            = 583
Number of inequality constraint evaluations          = 583
Number of equality constraint Jacobian evaluations   = 130
Number of inequality constraint Jacobian evaluations = 130
Number of Lagrangian Hessian evaluations             = 128
Total CPU secs in IPOPT (w/o function evaluations)   =    260.815
Total CPU secs in NLP function evaluations           =      8.510

EXIT: Optimal Solution Found.
